W=5;
H=3;

MAX_TIME=7;
MAX_TRACKS=4;

TARGET=(2,5);

TRAINS=[(2,1,RIGHT),(2,4,LEFT)];

INIT_POS=[
(2,1,STRAIGHT_RL),
(2,4,STRAIGHT_RL),
(2,5,STRAIGHT_RL),
];
TUNNEL_PAIRS=[];

GATES=[];
ACTIVATIONS=[];

DSWITCHES=[];

STATIONS=[];
